Normalized Data/p03_1050_tsplib0_normalized_split0.vrp
NAME:p03_1050_tsplib0_NORMALIZED_split
BEST_KNOWN: 0
COMMENT: 0
DIMENSION: 434
CAPACITY: 100
EDGE_WEIGHT_FORMAT: FUNCTION
EDGE_WEIGHT_TYPE: EXACT_2D
NODE_COORD_SECTION
1 0.00000 0.00000
2 6 14
3 6 14
4 6 14
5 6 14
6 6 14
7 6 14
8 0 -18
9 0 -18
10 20 10
11 20 10
12 20 10
13 20 10
14 20 10
15 20 10
16 20 -15
17 20 -15
18 20 -15
19 20 -15
20 -20 -5
21 -20 -5
22 -20 -5
23 -20 -5
24 -10 -5
25 -10 -5
26 -10 -5
27 -10 -5
28 -10 -5
29 -10 -5
30 -15 15
31 -15 15
32 -15 15
33 -15 15
34 -15 15
35 -15 15
36 -25 8
37 -25 8
38 -25 8
39 -25 8
40 -25 8
41 20 25
42 20 25
43 20 25
44 20 25
45 20 25
46 -5 25
47 -5 25
48 -15 30
49 -15 30
50 -15 30
51 -15 30
52 15 0
53 15 0
54 -5 -10
55 -5 -10
56 -5 -10
57 -5 -10
58 -5 -10
59 -20 -25
60 -20 -25
61 -5 -30
62 -5 -30
63 -5 -30
64 -5 -30
65 -5 -30
66 -5 -30
67 -25 -15
68 -25 -15
69 -30 -5
70 -30 -5
71 -30 -5
72 -30 -5
73 -15 5
74 -15 5
75 -20 25
76 -20 25
77 -20 25
78 -20 25
79 -20 25
80 -20 25
81 10 30
82 10 30
83 10 30
84 10 -15
85 10 -15
86 10 -15
87 10 -15
88 10 -15
89 10 -25
90 10 -25
91 10 -25
92 20 -30
93 20 -30
94 20 -30
95 20 -30
96 30 0
97 30 0
98 30 0
99 30 0
100 30 0
101 30 -15
102 30 -15
103 30 -15
104 10 -5
105 10 -5
106 10 -5
107 10 -5
108 10 -5
109 10 -5
110 10 -5
111 0 5
112 0 5
113 6 2
114 6 2
115 6 2
116 29 7
117 29 7
118 29 7
119 5 25
120 5 25
121 5 25
122 5 25
123 5 25
124 -4 17
125 -4 17
126 -4 17
127 -4 17
128 -4 17
129 -4 17
130 0 34
131 0 34
132 0 34
133 0 34
134 18 17
135 18 17
136 18 17
137 18 17
138 18 17
139 30 20
140 30 20
141 30 20
142 30 20
143 30 20
144 28 30
145 28 30
146 28 30
147 28 30
148 28 30
149 -33 25
150 -33 25
151 -33 25
152 -33 25
153 -33 25
154 -33 25
155 -15 -15
156 -15 -15
157 -15 -15
158 -30 -30
159 -30 -30
160 -30 -30
161 -30 -30
162 -30 -30
163 -30 -30
164 25 -23
165 25 -23
166 25 -23
167 25 -23
168 25 -23
169 25 -23
170 5 -10
171 5 -10
172 5 -10
173 5 -10
174 5 -10
175 7 -28
176 7 -28
177 7 -28
178 7 -28
179 -11 -23
180 -11 -23
181 -11 -23
182 -12 -32
183 -12 -32
184 -12 -32
185 -24 -21
186 -24 -21
187 -24 -21
188 -24 -21
189 -29 3
190 -29 3
191 -29 3
192 -33 13
193 -33 13
194 -27 21
195 -27 21
196 -27 21
197 -27 21
198 -27 21
199 -27 21
200 -22 17
201 -22 17
202 -22 17
203 -22 17
204 -29 33
205 -29 33
206 -29 33
207 -29 33
208 -29 33
209 12 12
210 12 12
211 12 12
212 12 12
213 12 12
214 12 12
215 14 23
216 14 23
217 14 23
218 14 23
219 -8 8
220 -8 8
221 -8 8
222 -8 8
223 2 -4
224 2 -4
225 2 -4
226 2 -4
227 22 -6
228 22 -6
229 22 -6
230 22 -6
231 28 -12
232 28 -12
233 28 -12
234 28 -12
235 28 -12
236 28 -12
237 28 -12
238 18 -23
239 18 -23
240 18 -23
241 18 -23
242 18 -23
243 18 -23
244 18 -23
245 -3 -23
246 -3 -23
247 -3 -23
248 1 -9
249 1 -9
250 1 -9
251 1 -9
252 1 -9
253 1 -9
254 -14 -11
255 -14 -11
256 -14 -11
257 -18 -1
258 -18 -1
259 -18 -1
260 -18 -1
261 -23 -11
262 -23 -11
263 -23 -11
264 -11 23
265 -8 34
266 -8 34
267 -8 34
268 -20 42
269 -20 42
270 27 42
271 27 42
272 27 42
273 27 42
274 27 42
275 14 38
276 14 38
277 14 38
278 14 38
279 14 38
280 14 38
281 32 -30
282 32 -30
283 32 -30
284 32 -30
285 32 -30
286 32 -30
287 21 4
288 21 4
289 21 4
290 21 4
291 2 12
292 2 12
293 2 12
294 2 12
295 2 12
296 2 12
297 2 12
298 2 21
299 2 21
300 2 21
301 2 21
302 2 21
303 2 21
304 22 33
305 22 33
306 22 33
307 22 33
308 22 33
309 12 -19
310 12 -19
311 12 -19
312 9 -18
313 9 -18
314 9 -18
315 9 -18
316 9 -18
317 11 -22
318 11 -22
319 11 -22
320 11 -22
321 11 -22
322 11 -22
323 11 -22
324 14 -24
325 14 -24
326 14 -24
327 14 7
328 14 7
329 14 7
330 14 7
331 18 8
332 18 8
333 18 8
334 18 8
335 18 8
336 26 17
337 26 17
338 26 17
339 26 17
340 26 17
341 26 17
342 22 13
343 22 13
344 22 13
345 22 13
346 21 2
347 21 2
348 21 2
349 21 2
350 20 19
351 20 19
352 20 19
353 20 19
354 -20 12
355 -20 12
356 -21 2
357 -21 2
358 -21 2
359 -21 2
360 -21 2
361 -24 -4
362 -24 -4
363 -24 -4
364 -19 -13
365 -19 -13
366 -19 -13
367 -19 -13
368 -19 -13
369 -19 -13
370 -19 -13
371 -31 -17
372 -31 -17
373 -31 -17
374 -7 -17
375 -7 -17
376 -7 -17
377 -7 -17
378 -7 -17
379 -7 -17
380 -7 -17
381 -9 17
382 -9 17
383 -9 17
384 -9 17
385 -9 0
386 -9 0
387 -9 0
388 -9 0
389 -9 0
390 -9 0
391 -4 32
392 -4 32
393 -4 32
394 -4 32
395 -4 32
396 -20 -16
397 -20 -16
398 -20 -16
399 -20 -16
400 -13 -13
401 -13 -13
402 -13 -13
403 -13 -13
404 -13 -13
405 -17 -11
406 -17 -11
407 -17 -11
408 -17 -11
409 -9 -8
410 -9 -8
411 -9 -8
412 -9 -8
413 -9 -8
414 -10 -11
415 -10 -11
416 -10 -11
417 -10 -11
418 -10 -11
419 -13 -8
420 -13 -8
421 -13 -8
422 -10 -14
423 -10 -14
424 -16 -14
425 -16 -14
426 -16 -14
427 -16 -14
428 -15 -9
429 -15 -9
430 -17 -17
431 -17 -17
432 -17 -17
433 -17 -17
434 -17 -17
DEMAND_SECTION
1 0
2 20
3 20
4 1
5 1
6 1
7 1
8 20
9 5
10 10
11 5
12 1
13 1
14 1
15 1
16 20
17 10
18 1
19 1
20 20
21 20
22 5
23 1
24 20
25 20
26 1
27 1
28 1
29 1
30 20
31 5
32 1
33 1
34 1
35 1
36 10
37 1
38 1
39 1
40 1
41 10
42 5
43 1
44 1
45 1
46 10
47 1
48 20
49 20
50 1
51 1
52 20
53 5
54 20
55 5
56 1
57 1
58 1
59 20
60 10
61 20
62 10
63 5
64 1
65 1
66 1
67 20
68 1
69 10
70 1
71 1
72 1
73 20
74 10
75 20
76 20
77 1
78 1
79 1
80 1
81 20
82 10
83 1
84 10
85 1
86 1
87 1
88 1
89 20
90 10
91 5
92 20
93 10
94 5
95 1
96 20
97 10
98 1
99 1
100 1
101 20
102 20
103 1
104 20
105 10
106 5
107 1
108 1
109 1
110 1
111 10
112 1
113 20
114 20
115 1
116 10
117 5
118 1
119 10
120 1
121 1
122 1
123 1
124 20
125 20
126 1
127 1
128 1
129 1
130 20
131 20
132 1
133 1
134 20
135 20
136 1
137 1
138 1
139 10
140 5
141 1
142 1
143 1
144 20
145 20
146 1
147 1
148 1
149 20
150 5
151 1
152 1
153 1
154 1
155 20
156 20
157 1
158 20
159 5
160 1
161 1
162 1
163 1
164 20
165 5
166 1
167 1
168 1
169 1
170 20
171 20
172 1
173 1
174 1
175 10
176 5
177 1
178 1
179 10
180 1
181 1
182 20
183 10
184 5
185 20
186 10
187 5
188 1
189 20
190 20
191 5
192 20
193 1
194 20
195 5
196 1
197 1
198 1
199 1
200 20
201 5
202 1
203 1
204 20
205 20
206 1
207 1
208 1
209 20
210 10
211 1
212 1
213 1
214 1
215 20
216 10
217 5
218 1
219 20
220 10
221 5
222 1
223 10
224 1
225 1
226 1
227 20
228 20
229 5
230 1
231 20
232 10
233 5
234 1
235 1
236 1
237 1
238 20
239 10
240 5
241 1
242 1
243 1
244 1
245 20
246 1
247 1
248 20
249 10
250 5
251 1
252 1
253 1
254 20
255 5
256 1
257 20
258 1
259 1
260 1
261 20
262 20
263 5
264 20
265 20
266 1
267 1
268 20
269 1
270 20
271 1
272 1
273 1
274 1
275 20
276 5
277 1
278 1
279 1
280 1
281 20
282 20
283 1
284 1
285 1
286 1
287 10
288 1
289 1
290 1
291 20
292 20
293 5
294 1
295 1
296 1
297 1
298 20
299 20
300 1
301 1
302 1
303 1
304 20
305 20
306 5
307 1
308 1
309 20
310 20
311 5
312 20
313 20
314 1
315 1
316 1
317 20
318 20
319 5
320 1
321 1
322 1
323 1
324 10
325 1
326 1
327 20
328 1
329 1
330 1
331 20
332 10
333 1
334 1
335 1
336 20
337 10
338 5
339 1
340 1
341 1
342 20
343 10
344 1
345 1
346 20
347 20
348 1
349 1
350 20
351 10
352 5
353 1
354 20
355 1
356 20
357 10
358 5
359 1
360 1
361 20
362 10
363 5
364 20
365 20
366 5
367 1
368 1
369 1
370 1
371 20
372 20
373 1
374 20
375 20
376 5
377 1
378 1
379 1
380 1
381 20
382 20
383 1
384 1
385 20
386 20
387 1
388 1
389 1
390 1
391 10
392 1
393 1
394 1
395 1
396 20
397 20
398 1
399 1
400 20
401 10
402 1
403 1
404 1
405 10
406 5
407 1
408 1
409 20
410 20
411 5
412 1
413 1
414 20
415 10
416 5
417 1
418 1
419 20
420 20
421 1
422 20
423 20
424 20
425 5
426 1
427 1
428 20
429 20
430 10
431 1
432 1
433 1
434 1
DEPOT_SECTION
1
-1
EOF