Normalized Data/p03_1050_tsplib0_normalized_split0.sol
433 -4 2 6 5 1 3 292 290 291 293 110 -8 7 244 246 245 375 374 373 378 377 376 379 -16 17 15 18 165 163 101 102 100 234 236 233 -20 22 21 19 360 361 259 258 256 257 -28 26 27 25 24 23 389 386 385 384 388 387 -38 39 36 35 37 188 190 189 356 355 359 358 357 -41 40 43 42 44 307 304 303 277 278 274 279 276 275 81 -51 228 226 227 229 106 108 107 109 104 103 -52 286 116 117 115 95 97 98 96 99 230 232 231 235 -53 421 422 413 415 414 417 416 -57 55 54 56 178 179 180 183 181 182 65 64 61 63 60 62 -58 59 158 160 161 159 162 157 186 187 184 185 410 -73 72 31 32 33 34 30 29 380 381 383 -74 78 79 77 76 75 49 47 50 48 45 46 126 125 127 -85 87 86 84 83 312 315 311 170 171 169 -105 167 168 164 166 283 281 285 282 280 284 91 94 93 92 324 325 322 319 320 313 314 -111 130 129 132 131 390 393 392 391 394 265 266 264 263 -114 112 113 225 223 224 222 252 251 249 247 248 250 -135 133 134 137 136 352 351 350 349 208 211 -172 173 308 309 310 323 240 242 241 238 239 237 243 -175 176 174 177 88 89 90 316 321 318 317 -199 201 202 200 196 193 194 191 192 353 354 -213 212 209 210 336 335 344 342 343 341 14 12 10 13 11 9 333 332 -217 215 214 216 80 82 118 119 120 122 121 297 302 299 301 -218 220 219 128 123 124 298 300 294 295 296 -221 195 198 197 148 150 149 152 153 151 203 206 205 204 207 268 267 382 -254 253 255 155 154 156 400 403 402 401 399 -261 262 260 365 369 366 423 424 425 426 409 -306 305 269 273 272 270 271 143 146 144 145 147 139 142 140 138 141 337 338 340 339 -328 327 329 326 330 334 331 288 289 287 347 346 348 345 -362 71 70 68 69 371 370 372 67 66 406 404 407 405 420 -368 367 363 364 398 397 395 396 429 431 430 433 432 412 411 -408 427 428 418 419 0 





OBJ=
2046.586
BEST_KNOWN=
0.000